
Gurobi 10.0.1 (linux64) logging started Wed May 31 16:53:11 2023

Set parameter LogFile to value "logFiles/N-1L-D/N-1L-14U-27F-23V-240D-basic.log"
Gurobi Optimizer version 10.0.1 build v10.0.1rc0 (linux64)

CPU model: Intel(R) Xeon(R) Gold 5115 CPU @ 2.40GHz, instruction set [SSE2|AVX|AVX2|AVX512]
Thread count: 20 physical cores, 40 logical processors, using up to 20 threads

Optimize a model with 193111 rows, 2346180 columns and 17392814 nonzeros
Model fingerprint: 0x9ad5c37e
Variable types: 3505 continuous, 2342675 integer (2342675 binary)
Coefficient statistics:
  Matrix range     [1e+00, 2e+05]
  Objective range  [4e+01, 3e+07]
  Bounds range     [1e+00, 1e+00]
  RHS range        [1e+00, 5e+06]
Presolve removed 104039 rows and 39604 columns (presolve time = 6s) ...
Presolve removed 104048 rows and 39612 columns (presolve time = 10s) ...
Presolve removed 110307 rows and 39612 columns (presolve time = 15s) ...
Presolve removed 110307 rows and 39612 columns (presolve time = 20s) ...
Presolve removed 110505 rows and 39612 columns (presolve time = 25s) ...
Presolve removed 110505 rows and 39612 columns (presolve time = 31s) ...
Presolve removed 110505 rows and 39612 columns (presolve time = 36s) ...
Presolve removed 110505 rows and 39612 columns (presolve time = 40s) ...
Presolve removed 110505 rows and 39612 columns (presolve time = 45s) ...
Presolve removed 110505 rows and 39612 columns (presolve time = 50s) ...
Presolve removed 110505 rows and 39612 columns (presolve time = 55s) ...
Presolve removed 110348 rows and 39640 columns
Presolve time: 57.69s

Explored 0 nodes (0 simplex iterations) in 60.70 seconds (61.33 work units)
Thread count was 1 (of 40 available processors)

Solution count 0

Time limit reached
Best objective -, best bound -, gap -
IIS computation: initial model status unknown, solving to determine model status
Presolve removed 104039 rows and 39605 columns (presolve time = 5s) ...
Presolve removed 104048 rows and 39613 columns (presolve time = 11s) ...
Presolve removed 110307 rows and 39613 columns (presolve time = 15s) ...
Presolve removed 110307 rows and 39613 columns (presolve time = 20s) ...
Presolve removed 110505 rows and 39613 columns (presolve time = 25s) ...
Presolve removed 110505 rows and 39613 columns (presolve time = 31s) ...
Presolve removed 110505 rows and 39613 columns (presolve time = 35s) ...
Presolve removed 110505 rows and 39613 columns (presolve time = 41s) ...
Presolve removed 110505 rows and 39613 columns (presolve time = 45s) ...
Presolve removed 110505 rows and 39613 columns (presolve time = 50s) ...
Presolve removed 110348 rows and 39641 columns
Presolve time: 54.94s
Presolved: 82763 rows, 2306539 columns, 13356783 nonzeros
Variable types: 3647 continuous, 2302892 integer (2302892 binary)

Explored 0 nodes (0 simplex iterations) in 60.73 seconds (62.83 work units)
Thread count was 20 (of 40 available processors)

Solution count 0

Time limit reached
Best objective -, best bound -0.000000000000e+00, gap -
IIS runtime: 60.76 seconds (62.83 work units)
